33 15 
43 40 
68 51 
21 83 
42 95 
41 2 
84 9 
34 60 
67 89 
3 18 
6 26 
19 8 
42 27 
20 27 
42 48 
84 27 
63 79 
19 83 
82 41 
67 25 
88 8 
79 72 
69 66 
32 37 
55 35 
7 14 
14 27 
74 8 
6 94 
36 0 
42 72 
79 57 
52 99 
41 34 
92 60 
11 80 
68 43 
53 90 
9 85 
79 16 
73 86 
30 39 
65 56 
47 23 
50 35 
75 44 
8 55 
54 12 
54 95 
98 46 
